&GLOBAL
  PRINT_LEVEL LOW
  PREFERRED_DIAG_LIBRARY ELPA
  PROJECT_NAME CU_AIMD
  RUN_TYPE MD
&END GLOBAL
&MOTION
  &GEO_OPT
    MAX_FORCE 4.4999999999999999E-04
    RMS_DR 1.5000000000000000E-03
    RMS_FORCE 2.9999999999999997E-04
    OPTIMIZER CG
    MAX_DR 3.0000000000000001E-03
    MAX_ITER 100
  &END GEO_OPT
  &MD
    STEPS 2000
    TIMESTEP 2
    TEMPERATURE 400
    ENSEMBLE LANGEVIN
    &LANGEVIN
      GAMMA 0.01
    &END LANGEVIN
    &THERMOSTAT
      TYPE AD_LANGEVIN
      &AD_LANGEVIN
        TIMECON_LANGEVIN 1.000E+001
        TIMECON_NH 1.000E+001
      &END AD_LANGEVIN
    &END THERMOSTAT
  &END MD
  &PRINT
    &FORCES OFF
    &END FORCES
    &RESTART_HISTORY
      &EACH
        MD 100
      &END EACH
    &END RESTART_HISTORY
    &TRAJECTORY
      FILENAME MD.TRAJ
      &EACH
        MD 10
      &END EACH
    &END TRAJECTORY
    &VELOCITIES OFF
    &END VELOCITIES
    &RESTART
      BACKUP_COPIES 3
      FILENAME MD.REST
      &EACH
        MD 10
      &END EACH
    &END RESTART
  &END PRINT
&END MOTION
&FORCE_EVAL
  METHOD QS
  &SUBSYS
    &CELL
      A 2.4691451244551399E+01    0.0000000000000000E+00    0.0000000000000000E+00
      B 7.4065517955292259E+00    1.2831972785618889E+01    0.0000000000000000E+00
      C 1.3135604976388381E-10    5.5837223550118086E-11    1.8000000000000004E+01
      PERIODIC XYZ
      ALPHA_BETA_GAMMA 90. 90. 60.
      SYMMETRY NONE
    &END CELL
    &COORD
  C         7.4013728558       12.8390085494       -0.0062342261
  C        25.8829138285        2.1862086774        0.0152471839
  C         2.4560026751        0.0770858880       -0.0083776705
  C         2.4490206434        1.4964523170        0.0142943741
  C        27.0941682673        4.3261419255        0.0183572690
  C         3.6927041805        2.1941899472        0.0356010359
  C         3.6840237151        3.6245884762        0.0728911668
  C        28.3756906833        6.4357386178       -0.0361429073
  C         4.9537630590        0.0765737163       -0.0185750059
  C         4.9534462862        1.4896530220        0.0056378181
  C         4.9598269633        4.3362007873        0.0820968758
  C         4.9974085259        5.7620222859       -0.0026600396
  C         4.9843132895        8.5335520958       -0.0500017335
  C         6.2018199714        2.1772750117        0.0142914520
  C         6.2298182490        3.6147328942        0.0902779264
  C         6.3033505943        6.4438499481       -0.0175378766
  C         6.3005790423        7.8589155456       -0.0415434048
  C         6.2053398216       10.6592783562       -0.0284736422
  C        14.8141953647       12.8336458319       -0.0282561519
  C         7.4214298416        1.4366548676       -0.0168490922
  C         7.5073888793        4.3286698805        0.0500848043
  C         7.6248843025        5.7640243820        0.0122373376
  C         7.5995373587        8.5507537753       -0.0349341212
  C         7.4892913584        9.9718220631       -0.0313568355
  C         8.6625139800        2.1335265033       -0.0119690709
  C         8.7139611039        3.5684136269        0.0113836489
  C         8.9913022270        6.4280627410       -0.0072248686
  C         8.9847337046        7.8821520828       -0.0243750629
  C         8.6914520248       10.7252349638       -0.0246463733
  C         8.6588876558       12.1561003105       -0.0145121689
  C        17.2655703240       12.7960462970       -0.0240769959
  C         9.8656909498        1.3847892809       -0.0214323394
  C         9.9635925759        4.2474617231       -0.0064451120
  C        10.2537158187        5.6458760643       -0.0078392436
  C        10.2223433421        8.6694539771       -0.0251900476
  C         9.9580874565       10.0659799397       -0.0261316082
  C        11.0968013663        2.0861831902       -0.0203372543
  C        11.1185442438        3.4658639408       -0.0189269529
  C        11.1195808555       10.8455452688       -0.0253337288
  C        11.1153888523       12.2282552866       -0.0190524547
  C        12.3150398153        0.0222340445       -0.0086827947
  C        12.3374530416        1.4189467923       -0.0166090643
  C        12.2833376009        4.2561973293       -0.0209865949
  C        12.0169989871        5.6441847421       -0.0157463690
  C        12.0534537445        8.6707153057       -0.0221811726
  C        12.2986707833       10.0506538353       -0.0251645567
  C        13.5548977837        2.1688159491       -0.0185008737
  C        13.5464541871        3.5955641542       -0.0236630314
  C        13.3085900149        6.4299110618       -0.0179470355
  C        13.3234324265        7.8694093205       -0.0194637959
  C        13.5593611125       10.7144296372       -0.0265713536
  C        13.5751562619       12.1483390800       -0.0269939686
  C        14.7796568241        0.0595391792        0.0286508534
  C        14.7934356833        1.4809478505       -0.0045766115
  C        14.7634809734        4.3301046937       -0.0229522294
  C        14.6871640642        5.7570984538       -0.0205812575
  C        14.6962493819        8.5352753941       -0.0201448077
  C        14.7710217943        9.9602285549       -0.0241156149
  C        16.0247507411        2.1980740163       -0.0084836067
  C        16.0265109518        3.6286880968       -0.0207559246
  C        16.0258443908        6.4352493590       -0.0203485993
  C        16.0383302057        7.8417392594       -0.0190835509
  C        16.0372881148       10.6495755549       -0.0242967528
  C        16.0368973332       12.0809796932       -0.0275653827
  C        24.6415982361       12.8410820168        0.0907303806
  C        17.2498590446        1.4524024438        0.0175756739
  C        17.2934444780        4.3174783614       -0.0206929989
  C        17.3670776098        5.7418555664       -0.0217392804
  C        17.3765192306        8.5199104481       -0.0184956966
  C        17.3003913591        9.9470260793       -0.0190413075
  C        18.4912033211        2.1323581087        0.0051259176
  C        18.5061427055        3.5644869158       -0.0147903596
  C        18.7408330953        6.4077103568       -0.0218415894
  C        18.7560841948        7.8463626130       -0.0191127423
  C        18.5183364927       10.6804288460       -0.0132955239
  C        18.5054480619       12.1055020075       -0.0161139973
  C        27.1272199457       12.7801656369        0.0604590404
  C        19.7093649688        1.3729807606        0.0283102270
  C        19.7676924895        4.2268841956       -0.0160814752
  C        20.0112670041        5.6059172698       -0.0215995135
  C        20.0485909071        8.6298410599       -0.0136741311
  C        19.7845060331       10.0178110585       -0.0052908158
  C        20.9537201368        2.0482583671        0.0100714989
  C        20.9468930349        3.4314375825       -0.0087897091
  C        20.9498324103       10.8057605053        0.0103859313
  C        20.9613784611       12.1853609563        0.0111226021
  C        29.6234547262       12.7746661444        0.0042972710
  C        22.2065728138        1.3620003032        0.0099932517
  C        22.1079304356        4.2105778681       -0.0142075423
  C        21.8462444292        5.6063265990       -0.0221924394
  C        21.8165708043        8.6246202683       -0.0110034055
  C        22.1088162477       10.0226662021        0.0124819482
  C        23.4090685033        2.1175420539        0.0050249853
  C        23.3740950009        3.5487552527       -0.0048031845
  C        23.0834279169        6.3952914175       -0.0266129579
  C        23.0782334954        7.8487849044       -0.0249223603
  C        23.3630536458       10.6848633854        0.0349530165
  C        23.3936161375       12.1300442016        0.0734422510
  C        24.6687210093        1.4350478916        0.0059636209
  C        24.5740089187        4.3034614103       -0.0074918331
  C        24.4674743007        5.7249742164       -0.0234833462
  C        24.4503106296        8.5196929753       -0.0290756207
  C        24.5750550765        9.9425002310        0.0003199494
  C        25.8560512402        3.6140792910        0.0113718346
  C        25.7649579003        6.4195142624       -0.0352184955
  C        25.7641321249        7.8370542540       -0.0439607482
  C        25.8453617256       10.6333496503        0.0055133273
  C        25.8729697256       12.0686038651        0.0854842322
  C        27.0773376984        5.7441565082       -0.0238980966
  C        27.0680471369        8.5248618557       -0.0506831724
  C        27.1033293392        9.9434886585       -0.0332889681
  C        28.3802505940        7.8445528621       -0.0534109387
  C        28.3718770363       10.6426407448       -0.0257009668
  C        28.3859491658       12.0607794619        0.0111355198
  C        29.6504128669        9.9526926145       -0.0394762260
  C        30.8785140684       12.0872546688       -0.0118751001
 Cu         3.3261380502        3.8685021357        4.1788691598
 Cu         4.3605680189        3.9942745282        2.1034667603
 Cu         5.6719873782        4.0123696073        4.1065259756
 Cu         6.9766022631        4.0145762742        2.0990300686
 Cu         8.0116612603        4.2037016756        4.1727409999
 Cu        15.4922610100       -0.1046905890        4.1805876037
 Cu        16.5243723345       -0.2601062726        2.1095468790
 Cu        17.8385300314       -0.2269910429        4.1099852073
 Cu        26.5433942741       12.4688091261        2.1080818236
 Cu        27.5924281929       12.4941210522        4.1800496969
    &END COORD
    &KIND Cu
      POTENTIAL GTH-PBE-q11
      ELEMENT Cu
      BASIS_SET DZVP-MOLOPT-SR-GTH-q11
    &END KIND
    &KIND C
      POTENTIAL GTH-PBE-q4
      BASIS_SET DZVP-MOLOPT-SR-GTH-q4
    &END KIND
  &END SUBSYS
  &DFT
    POTENTIAL_FILE_NAME GTH_POTENTIALS
    MULTIPLICITY 1
    CHARGE 0
    BASIS_SET_FILE_NAME BASIS_MOLOPT
    &MGRID
      CUTOFF 5.0000000000000000E+02
    &END MGRID
    &QS
      EXTRAPOLATION_ORDER 3
      METHOD GPW
      EPS_PGF_ORB 1.0E-5
      EXTRAPOLATION ASPC
      EPS_DEFAULT 1.0E-12
    &END QS
    &XC
      GRADIENT_CUTOFF 1.0000000000000000E-10
      TAU_CUTOFF 1.0000000000000000E-10
      DENSITY_CUTOFF 1.0000000000000000E-10
      &XC_FUNCTIONAL NO_SHORTCUT
        &PBE T
          PARAMETRIZATION ORIG
        &END PBE
      &END XC_FUNCTIONAL
      &XC_GRID
        XC_DERIV PW
        XC_SMOOTH_RHO NN10
      &END XC_GRID
      &VDW_POTENTIAL
        POTENTIAL_TYPE PAIR_POTENTIAL
        &PAIR_POTENTIAL
          TYPE DFTD3(BJ)
          REFERENCE_FUNCTIONAL PBE
          PARAMETER_FILE_NAME ./dftd3.dat
          R_CUTOFF 1.05835442E+001
        &END PAIR_POTENTIAL
      &END VDW_POTENTIAL
    &END XC
    &POISSON
      PERIODIC XYZ
    &END POISSON
    &SCF
      ADDED_MOS 200
      EPS_SCF 9.9999999999999995E-07
      CHOLESKY INVERSE
      MAX_SCF 200
      SCF_GUESS ATOMIC
      &DIAGONALIZATION T
        ALGORITHM STANDARD
      &END DIAGONALIZATION
      &PRINT
        &RESTART OFF
        &END RESTART
      &END PRINT
      &MIXING T
        METHOD BROYDEN_MIXING
        BETA 0.5
        ALPHA 0.2
      &END MIXING
      &SMEAR T
        METHOD FERMI_DIRAC
        ELECTRONIC_TEMPERATURE 300
      &END SMEAR
    &END SCF
  &END DFT
&END FORCE_EVAL
