 # Version information for this restart file 
 # current date 2024-06-14 16:35:55.056
 # current working dir /mnt/e/Cell_Packing/Water_Sim/MyMultiply
 # Program compiled at                             Thu Jun 13 07:46:42 SAST 2024
 # Program compiled on                                           DESKTOP-F0MB4IA
 # Program compiled for                                                    local
 # Source code revision number                                       git:b4a17a5
 &GLOBAL
   PRINT_LEVEL LOW
   PROJECT_NAME "WATER"
   RUN_TYPE GEO_OPT
   WALLTIME 143200
 &END GLOBAL
 &MOTION
   &GEO_OPT
     OPTIMIZER BFGS
     MAX_ITER 1000
     STEP_START_VAL 53
     &BFGS
     &END BFGS
   &END GEO_OPT
 &END MOTION
 &FORCE_EVAL
   METHOD QS
   &DFT
     BASIS_SET_FILE_NAME ./BASIS_MOLOPT
     POTENTIAL_FILE_NAME ./GTH_POTENTIALS
     MULTIPLICITY 1
     CHARGE 0
     &SCF
       MAX_SCF 1000
       EPS_SCF  9.9999999999999995E-007
       SCF_GUESS ATOMIC
       &OT T
         MINIMIZER DIIS
         PRECONDITIONER FULL_SINGLE_INVERSE
       &END OT
       &OUTER_SCF T
         EPS_SCF  9.9999999999999995E-007
         MAX_SCF 10
       &END OUTER_SCF
       &PRINT
         &RESTART OFF
         &END RESTART
       &END PRINT
     &END SCF
     &QS
       EPS_DEFAULT  1.0000000000000000E-010
       EXTRAPOLATION USE_PREV_P
       METHOD GPW
     &END QS
     &MGRID
       NGRIDS 5
       CUTOFF  5.0000000000000000E+002
       REL_CUTOFF  5.0000000000000000E+001
     &END MGRID
     &XC
       DENSITY_CUTOFF  1.0000000000000000E-010
       GRADIENT_CUTOFF  1.0000000000000000E-010
       TAU_CUTOFF  1.0000000000000000E-010
       &XC_FUNCTIONAL NO_SHORTCUT
         &PBE T
         &END PBE
       &END XC_FUNCTIONAL
       &VDW_POTENTIAL
         POTENTIAL_TYPE PAIR_POTENTIAL
         &PAIR_POTENTIAL
           R_CUTOFF  1.2000000000000000E+001
           TYPE DFTD3
           PARAMETER_FILE_NAME ./dftd3.dat
           REFERENCE_FUNCTIONAL "PBE"
         &END PAIR_POTENTIAL
       &END VDW_POTENTIAL
     &END XC
     &POISSON
       PERIODIC XYZ
     &END POISSON
   &END DFT
   &SUBSYS
     &CELL
       A  1.0057829609000002E+001  0.0000000000000000E+000  0.0000000000000000E+000
       B  0.0000000000000000E+000  8.1349602343199994E+000  0.0000000000000000E+000
       C  0.0000000000000000E+000  0.0000000000000000E+000  9.8997746917100002E+000
       PERIODIC XYZ
       MULTIPLE_UNIT_CELL 1 1 1
       SYMMETRY NONE
     &END CELL
     &COORD
       O  1.5645203152761307E+000  1.1517067267655641E+000  1.6129924379072933E+000
       O  1.5644522538432448E+000  1.1519791676959152E+000  4.9129961220065557E+000
       O  1.5644794936073432E+000  1.1516000211240025E+000  8.2133169193935576E+000
       O  1.5647329041412461E+000  3.8633172550256916E+000  1.6128134714207778E+000
       O  1.5643656594946169E+000  3.8635010940963945E+000  4.9134293723321516E+000
       O  1.5642316272383252E+000  3.8635863528709482E+000  8.2131718043254054E+000
       O  1.5647905397216098E+000  6.5745394731005691E+000  1.6136661469240376E+000
       O  1.5640366503296026E+000  6.5753189070460758E+000  4.9131212886407800E+000
       O  1.5644832707831242E+000  6.5754896948066293E+000  8.2124450828627946E+000
       O  4.9169034607832875E+000  1.1517467873686253E+000  1.6133667392564996E+000
       O  4.9169365847591200E+000  1.1520453550572041E+000  4.9132724468137283E+000
       O  4.9170695247930247E+000  1.1519921334502332E+000  8.2125863921120175E+000
       O  4.9168626694006301E+000  3.8635905954573420E+000  1.6132315114983020E+000
       O  4.9171437851266413E+000  3.8635145705420868E+000  4.9131392017080842E+000
       O  4.9171414599917069E+000  3.8634296065526854E+000  8.2127381695464070E+000
       O  4.9171804452461521E+000  6.5752284424404825E+000  1.6128691616487096E+000
       O  4.9173590052890601E+000  6.5749256575050428E+000  4.9131105311695649E+000
       O  4.9167691530243012E+000  6.5753559774611583E+000  8.2132422099862676E+000
       O  8.2697377902642337E+000  1.1519269440047917E+000  1.6130941337107327E+000
       O  8.2697521757787502E+000  1.1517105874436888E+000  4.9129452886285279E+000
       O  8.2695125653396584E+000  1.1520821976921007E+000  8.2129419737362355E+000
       O  8.2694785500648251E+000  3.8634174901134024E+000  1.6135801038673090E+000
       O  8.2696899372785033E+000  3.8637249750486564E+000  4.9124374737884970E+000
       O  8.2696882699755818E+000  3.8636429603595888E+000  8.2130802454457079E+000
       O  8.2694476270394226E+000  6.5753093606620148E+000  1.6130555616112341E+000
       O  8.2697286668534264E+000  6.5751975360106787E+000  4.9128682226567886E+000
       O  8.2697154620556361E+000  6.5750962977046354E+000  8.2130668655385186E+000
       H  2.1797702728858526E+000  1.1913873094162621E+000  2.3662937441169736E+000
       H  2.1796500718658773E+000  1.1949440697420044E+000  5.6659291828456233E+000
       H  2.1684753783077717E+000  1.1977940644185752E+000  8.9750958203508855E+000
       H  2.1845540194441289E+000  3.9043711234343621E+000  2.3623122091398137E+000
       H  2.1729057836356311E+000  3.9103332322631199E+000  5.6714494408108491E+000
       H  2.1669037798012982E+000  3.9048518964504999E+000  8.9763527077889638E+000
       H  2.1747314180732715E+000  6.6172856033214007E+000  2.3710440937027246E+000
       H  2.1651545875737583E+000  6.6192846499557136E+000  5.6773208925668337E+000
       H  2.1854318297561144E+000  6.6177326403111154E+000  8.9607445691089858E+000
       H  5.5265510124790946E+000  1.1967636522821072E+000  2.3707217236796225E+000
       H  5.5219579727996395E+000  1.1946229336013596E+000  5.6744692466675604E+000
       H  5.5345779565146662E+000  1.1952196165926925E+000  8.9636886152633473E+000
       H  5.5286541979545660E+000  3.9060928747444059E+000  2.3690086816925779E+000
       H  5.5257263814258746E+000  3.9066745898063906E+000  5.6714299492780675E+000
       H  5.5315812672201794E+000  3.9082437112241371E+000  8.9662438443146470E+000
       H  5.5320254620364997E+000  6.6189815801624423E+000  2.3661076423836671E+000
       H  5.5288758884684226E+000  6.6187867467175812E+000  5.6689788921115749E+000
       H  5.5227528938928767E+000  6.6185499213709917E+000  8.9736824644943027E+000
       H  8.8794656143571569E+000  1.1959783109513209E+000  2.3704371596165057E+000
       H  8.8825265308197014E+000  1.1963521322874104E+000  5.6677899158629179E+000
       H  8.8798375654987023E+000  1.1950404080544543E+000  8.9698606783442933E+000
       H  8.8682250011794572E+000  3.9086391807841334E+000  2.3796229375879645E+000
       H  8.8879600639162923E+000  3.9057901026039210E+000  5.6630071687583294E+000
       H  8.8850597484572020E+000  3.9082522259755117E+000  8.9657443676713484E+000
       H  8.8778895558638062E+000  6.6182020098784244E+000  2.3714970167602725E+000
       H  8.8865407445019180E+000  6.6187812624576638E+000  5.6645181599492549E+000
       H  8.8795178342109988E+000  6.6210095497894486E+000  8.9701616511983957E+000
       H  1.3098262287590527E+000  2.0894234397628666E+000  1.4655606484519359E+000
       H  1.3160861071800347E+000  2.0899590679762921E+000  4.7567068613806471E+000
       H  1.3101351160434827E+000  2.0876423865183731E+000  8.0563551588060758E+000
       H  1.3140484430930099E+000  4.8017539405642324E+000  1.4615349847846650E+000
       H  1.3128713195843915E+000  4.7998957543940586E+000  4.7538605437151551E+000
       H  1.3105211173433993E+000  4.8007183378893581E+000  8.0613644199840984E+000
       H  1.3094740934720503E+000  7.5111254495687598E+000  1.4615641395821106E+000
       H  1.3136103750826027E+000  7.5124952417064383E+000  4.7555280792924792E+000
       H  1.3138933587770445E+000  7.5137311251696879E+000  8.0602336874770373E+000
       H  4.6665055964282729E+000  2.0887947102734254E+000  1.4553276259526025E+000
       H  4.6648229234368799E+000  2.0893472473633956E+000  4.7591810995565718E+000
       H  4.6636091283927916E+000  2.0892597972177489E+000  8.0605969225219933E+000
       H  4.6673491544485071E+000  4.8014653484845757E+000  1.4579914135941905E+000
       H  4.6644122630126335E+000  4.8007597716005543E+000  4.7592391479778273E+000
       H  4.6638797822971663E+000  4.8001838817206455E+000  8.0581423084678718E+000
       H  4.6654542585763226E+000  7.5126821738694396E+000  1.4585034432349426E+000
       H  4.6639766508308389E+000  7.5118439289844590E+000  4.7589352060313459E+000
       H  4.6643613746277079E+000  7.5125406724483419E+000  8.0588316849277692E+000
       H  8.0185034394422185E+000  2.0892691889339421E+000  1.4571914931050960E+000
       H  8.0156420975006437E+000  2.0885600168513045E+000  4.7592221595029693E+000
       H  8.0185049601212519E+000  2.0895263793250818E+000  8.0581382403767403E+000
       H  8.0172082677812018E+000  4.7998767975127521E+000  1.4555314838795865E+000
       H  8.0161588725297559E+000  4.8013730398635870E+000  4.7621885654154061E+000
       H  8.0178865863132334E+000  4.8007468321773796E+000  8.0576661529544964E+000
       H  8.0180356729416982E+000  7.5127418292657797E+000  1.4583373355846831E+000
       H  8.0164044999691875E+000  7.5125619644826402E+000  4.7603195145105053E+000
       H  8.0184002412098323E+000  7.5118976603601286E+000  8.0550373748474069E+000
     &END COORD
     &KIND "H"
       BASIS_SET "TZV2P-MOLOPT-GTH"
       POTENTIAL "GTH-PBE-q1"
       &POTENTIAL
         1
           2.0000000000000001E-001 2 -4.1789004399999996E+000  7.2446330999999997E-001
         0
         # Potential name: GTH-PBE-Q1 for element symbol: H
         # Potential read from the potential filename: ./GTH_POTENTIALS
       &END POTENTIAL
     &END KIND
     &KIND "O"
       BASIS_SET "DZVP-MOLOPT-GTH"
       POTENTIAL "GTH-PBE-q6"
       &POTENTIAL
         2 4
           2.4455430000000000E-001 2 -1.6667214800000000E+001  2.4873113199999999E+000
         2
           2.2095592000000000E-001 1  1.8337458110000000E+001
           2.1133246999999999E-001 0
         # Potential name: GTH-PBE-Q6 for element symbol: O
         # Potential read from the potential filename: ./GTH_POTENTIALS
       &END POTENTIAL
     &END KIND
     &TOPOLOGY
       COORD_FILE_NAME water.xyz
       COORD_FILE_FORMAT XYZ
       NUMBER_OF_ATOMS 81
       MULTIPLE_UNIT_CELL 1 1 1
     &END TOPOLOGY
   &END SUBSYS
 &END FORCE_EVAL
