&GLOBAL
  PRINT_LEVEL LOW
  PREFERRED_DIAG_LIBRARY ELPA
  PROJECT_NAME CU_AIMD
  RUN_TYPE MD
&END GLOBAL
&MOTION
  &GEO_OPT
    MAX_FORCE 4.4999999999999999E-04
    RMS_DR 1.5000000000000000E-03
    RMS_FORCE 2.9999999999999997E-04
    OPTIMIZER CG
    MAX_DR 3.0000000000000001E-03
    MAX_ITER 100
  &END GEO_OPT
  &MD
    STEPS 2000
    TIMESTEP 2
    TEMPERATURE 600
    ENSEMBLE LANGEVIN
    &LANGEVIN
      GAMMA 0.01
    &END LANGEVIN
    &THERMOSTAT
      TYPE AD_LANGEVIN
      &AD_LANGEVIN
        TIMECON_LANGEVIN 1.000E+001
        TIMECON_NH 1.000E+001
      &END AD_LANGEVIN
    &END THERMOSTAT
  &END MD
  &PRINT
    &FORCES OFF
    &END FORCES
    &RESTART_HISTORY
      &EACH
        MD 100
      &END EACH
    &END RESTART_HISTORY
    &TRAJECTORY
      FILENAME MD.TRAJ
      &EACH
        MD 10
      &END EACH
    &END TRAJECTORY
    &VELOCITIES OFF
    &END VELOCITIES
    &RESTART
      BACKUP_COPIES 3
      FILENAME MD.REST
      &EACH
        MD 10
      &END EACH
    &END RESTART
  &END PRINT
&END MOTION
&FORCE_EVAL
  METHOD QS
  &SUBSYS
    &CELL
      A 2.4691451244551399E+01    0.0000000000000000E+00    0.0000000000000000E+00
      B 7.4065517955292259E+00    1.2831972785618889E+01    0.0000000000000000E+00
      C 1.3135604976388381E-10    5.5837223550118086E-11    1.8000000000000004E+01
      PERIODIC XYZ
      ALPHA_BETA_GAMMA 90. 90. 60.
      SYMMETRY NONE
    &END CELL
    &COORD
  C         0.0256948077       -0.0117633766       -0.0218812506
  C         1.2595948542        2.1226542029       -0.0223692482
  C         2.4952528388       -0.0169916674       -0.0227019439
  C         2.4954245716        1.4107188870       -0.0202903361
  C         2.4904741510        4.2599678893       -0.0239303381
  C         3.7270139045        2.1213168942       -0.0133259342
  C         3.7252256233        3.5464173602       -0.0095618291
  C         3.7262682206        6.4028563819       -0.0222520011
  C         4.9633496954       -0.0203776917       -0.0238702823
  C         4.9617385288        1.4022768729       -0.0113563049
  C         4.9522503155        4.2635455280        0.0187564574
  C         4.9601421590        5.6909036319        0.0002980247
  C         4.9651899009        8.5428891609       -0.0245825176
  C         6.1969191496        2.1036645576        0.0057947983
  C         6.1888503623        3.5378581300        0.0602482314
  C         6.1874829204        6.4105131053        0.0221656775
  C         6.1976140740        7.8328568821       -0.0118596931
  C         6.1990310596       10.6817969214       -0.0238386635
  C         7.4321039732       -0.0195126136       -0.0356310115
  C         7.4332458658        1.4011619895       -0.0235713344
  C         7.4390511193        4.2508444202        0.0978609620
  C         7.4294277266        5.6965326521        0.1083371984
  C         7.4337155190        8.5498288971       -0.0081158684
  C         7.4355977625        9.9674409585       -0.0201908510
  C         8.6712793248        2.1197078068       -0.0311264299
  C         8.6808795103        3.5356436625        0.0065385437
  C         8.6808712045        6.4131508120        0.0657477009
  C         8.6735323081        7.8419953889        0.0157721009
  C         8.6699866147       10.6817565624       -0.0196927779
  C         8.6694691875       12.1047878249       -0.0221578329
  C         9.9031932974       -0.0185960196       -0.0523889087
  C         9.9066911692        1.4077448327       -0.0500715107
  C         9.9113736221        4.2573455020       -0.0066801777
  C         9.9180792487        5.6849078037        0.0181950409
  C         9.9072874109        8.5446026782       -0.0093997207
  C         9.9048457222        9.9709833368       -0.0203505672
  C        11.1381415185        2.1219038330       -0.0495910150
  C        11.1422511729        3.5478574633       -0.0363938917
  C        11.1424897649        6.4012388822       -0.0109463041
  C        11.1396695416        7.8276252419       -0.0151111601
  C        11.1369675501       10.6791336690       -0.0261427636
  C        11.1360123275       12.1017093614       -0.0256433204
  C        12.3700172801       -0.0122023089       -0.0536061049
  C        12.3739685204        1.4092753142       -0.0548468096
  C        12.3759034960        4.2645539390       -0.0384393632
  C        12.3785485869        5.6852183892       -0.0297814834
  C        12.3719593900        8.5400352733       -0.0254589801
  C        12.3726622074        9.9633132991       -0.0277958599
  C        13.6079097874        2.1249044040       -0.0534386195
  C        13.6106580578        3.5510680388       -0.0476641934
  C        13.6095625180        6.4004066962       -0.0349266107
  C        13.6083103499        7.8268049164       -0.0316255511
  C        13.6053281355       10.6742721775       -0.0325423150
  C        13.6055431026       12.1011625796       -0.0298372051
  C        14.8373004666       -0.0106555995       -0.0481502204
  C        14.8408227178        1.4156886807       -0.0524229736
  C        14.8412456668        4.2642322242       -0.0449260328
  C        14.8427221452        5.6891267578       -0.0401864185
  C        14.8384863791        8.5392501883       -0.0364659042
  C        14.8393608939        9.9633274029       -0.0374818535
  C        16.0748372341        2.1307572132       -0.0457573948
  C        16.0780134766        3.5500529312       -0.0437364576
  C        16.0752612493        6.4048456224       -0.0379768303
  C        16.0753935043        7.8241537371       -0.0381257887
  C        16.0725249995       10.6789740534       -0.0433708760
  C        16.0757434363       12.0982800830       -0.0457264839
  C        17.3107892437       -0.0041491322       -0.0218523661
  C        17.3119198801        1.4164908886       -0.0342597077
  C        17.3112223222        4.2656724208       -0.0358622913
  C        17.3121713381        5.6897393329       -0.0345256234
  C        17.3079162003        8.5398731089       -0.0384314329
  C        17.3093030819        9.9648090514       -0.0433147908
  C        18.5450459537        2.1278081414       -0.0271712342
  C        18.5452313875        3.5547034183       -0.0291831057
  C        18.5423505020        6.4021874950       -0.0277836775
  C        18.5411086319        7.8286269090       -0.0315474487
  C        18.5398461231       10.6779690928       -0.0449818092
  C        18.5426400823       12.1041617227       -0.0520958433
  C        19.7823046568       -0.0052988350       -0.0087067852
  C        19.7806854147        1.4173675679       -0.0200658921
  C        19.7778988328        4.2656572699       -0.0227811506
  C        19.7786328597        5.6889431501       -0.0201263136
  C        19.7720353259        8.5438320910       -0.0253639454
  C        19.7745904413        9.9645156943       -0.0347108171
  C        21.0145796902        2.1272563288       -0.0211746363
  C        21.0135941687        3.5498458133       -0.0208947097
  C        21.0109397370        6.4013052015       -0.0097304328
  C        21.0081502294        7.8277736812       -0.0059795674
  C        21.0082111628       10.6812195609       -0.0325054843
  C        21.0123970095       12.1071832992       -0.0470502622
  C        22.2486442890       -0.0137498609       -0.0179002186
  C        22.2488130943        1.4139569154       -0.0192176553
  C        22.2457483899        4.2579435959       -0.0160878681
  C        22.2432937746        5.6843289167       -0.0052815663
  C        22.2324992181        8.5441048635        0.0217474461
  C        22.2390882071        9.9717019752       -0.0031822467
  C        23.4811526414        2.1241371902       -0.0198584579
  C        23.4805927845        3.5471853404       -0.0173481675
  C        23.4770588676        6.3869818097        0.0170473205
  C        23.4697234558        7.8158754214        0.0665241609
  C        23.4694908578       10.6934124052        0.0088602083
  C        23.4792315149       12.1093330288       -0.0288107047
  C        24.7183903544        1.4087154980       -0.0216572922
  C        24.7149651289        4.2615428473       -0.0200919675
  C        24.7168711024        5.6791204450       -0.0089858897
  C        24.7212403420        8.5325021046        0.1068148765
  C        24.7115501253        9.9781716518        0.0982232947
  C        25.9515591499        3.5471768070       -0.0247202842
  C        25.9530013686        6.3960607167       -0.0140585368
  C        25.9631897012        7.8184134754        0.0194798617
  C        25.9617134001       10.6910839125        0.0605196289
  C        25.9536838205       12.1252781904        0.0076519363
  C        27.1854550459        5.6860453725       -0.0258950628
  C        27.1904884841        8.5380599305       -0.0012429410
  C        27.1982938075        9.9654055800        0.0182352170
  C        28.4243906507        7.8260862343       -0.0223220928
  C        28.4253386302       10.6825272692       -0.0087766202
  C        28.4235731797       12.1076120560       -0.0111297755
  C        29.6601198773        9.9689876351       -0.0229566056
  C        30.8910033047       12.1063021899       -0.0214460198
 Cu         5.9364753345        3.1663563882        4.1782264303
 Cu         6.7216887405        3.9111639511        2.1159845179
 Cu         7.4551303137        4.9684343406        4.1176676049
 Cu         8.1523739451        6.0562009808        2.1177920982
 Cu         8.9789810433        6.7676382893        4.1741203930
 Cu        26.2123096105       11.0675766785        4.1767049508
 Cu        24.7408173192        9.2264487330        4.1187469263
 Cu        25.4302324653       10.3122064198        2.1163215947
 Cu        24.0113054832        8.1659658570        2.1168574539
 Cu        23.2507847167        7.4004058878        4.1783657846
    &END COORD
    &KIND Cu
      POTENTIAL GTH-PBE-q11
      ELEMENT Cu
      BASIS_SET DZVP-MOLOPT-SR-GTH-q11
    &END KIND
    &KIND C
      POTENTIAL GTH-PBE-q4
      BASIS_SET DZVP-MOLOPT-SR-GTH-q4
    &END KIND
  &END SUBSYS
  &DFT
    POTENTIAL_FILE_NAME GTH_POTENTIALS
    MULTIPLICITY 1
    CHARGE 0
    BASIS_SET_FILE_NAME BASIS_MOLOPT
    &MGRID
      CUTOFF 5.0000000000000000E+02
    &END MGRID
    &QS
      EXTRAPOLATION_ORDER 3
      METHOD GPW
      EPS_PGF_ORB 1.0E-5
      EXTRAPOLATION ASPC
      EPS_DEFAULT 1.0E-12
    &END QS
    &XC
      GRADIENT_CUTOFF 1.0000000000000000E-10
      TAU_CUTOFF 1.0000000000000000E-10
      DENSITY_CUTOFF 1.0000000000000000E-10
      &XC_FUNCTIONAL NO_SHORTCUT
        &PBE T
          PARAMETRIZATION ORIG
        &END PBE
      &END XC_FUNCTIONAL
      &XC_GRID
        XC_DERIV PW
        XC_SMOOTH_RHO NN10
      &END XC_GRID
      &VDW_POTENTIAL
        POTENTIAL_TYPE PAIR_POTENTIAL
        &PAIR_POTENTIAL
          TYPE DFTD3(BJ)
          REFERENCE_FUNCTIONAL PBE
          PARAMETER_FILE_NAME ./dftd3.dat
          R_CUTOFF 1.05835442E+001
        &END PAIR_POTENTIAL
      &END VDW_POTENTIAL
    &END XC
    &POISSON
      PERIODIC XYZ
    &END POISSON
    &SCF
      ADDED_MOS 200
      EPS_SCF 9.9999999999999995E-07
      CHOLESKY INVERSE
      MAX_SCF 200
      SCF_GUESS ATOMIC
      &DIAGONALIZATION T
        ALGORITHM STANDARD
      &END DIAGONALIZATION
      &PRINT
        &RESTART OFF
        &END RESTART
      &END PRINT
      &MIXING T
        METHOD BROYDEN_MIXING
        BETA 0.5
        ALPHA 0.2
      &END MIXING
      &SMEAR T
        METHOD FERMI_DIRAC
        ELECTRONIC_TEMPERATURE 300
      &END SMEAR
    &END SCF
  &END DFT
&END FORCE_EVAL
