 # Version information for this restart file 
 # current date 2024-06-20 12:28:45.733
 # current working dir /mnt/e/Cell_Packing/Water_Sim/MyMultiply/AIMD
 # Program compiled at                             Thu Jun 13 07:46:42 SAST 2024
 # Program compiled on                                           DESKTOP-F0MB4IA
 # Program compiled for                                                    local
 # Source code revision number                                       git:b4a17a5
 &GLOBAL
   PRINT_LEVEL LOW
   PROJECT_NAME "WATER"
   RUN_TYPE MD
   WALLTIME 143200
 &END GLOBAL
 &MOTION
   &GEO_OPT
     OPTIMIZER BFGS
     MAX_ITER 1000
     &BFGS
     &END BFGS
   &END GEO_OPT
   &MD
     ENSEMBLE NVT
     STEPS 1000
     TIMESTEP  9.9999999999999978E-001
     STEP_START_VAL 12700
     TIME_START_VAL  1.2699999999998583E+004
     ECONS_START_VAL -4.6527921431700867E+002
     TEMPERATURE  2.7314999999999998E+002
     &THERMOSTAT
       TYPE NOSE
       REGION GLOBAL
     &END THERMOSTAT
     &AVERAGES T
       &RESTART_AVERAGES
         ITIMES_START 1
         AVECPU  1.7105903621609851E+001
         AVEHUGONIOT  0.0000000000000000E+000
         AVETEMP_BARO  0.0000000000000000E+000
         AVEPOT -4.6551830811872065E+002
         AVEKIN  1.0327084797252285E-001
         AVETEMP  2.6974128315478595E+002
         AVEKIN_QM  0.0000000000000000E+000
         AVETEMP_QM  0.0000000000000000E+000
         AVEVOL  5.4661510123180096E+003
         AVECELL_A  1.9006543452239409E+001
         AVECELL_B  1.5372846944781339E+001
         AVECELL_C  1.8707862944604170E+001
         AVEALPHA  9.0000000000000000E+001
         AVEBETA  9.0000000000000000E+001
         AVEGAMMA  9.0000000000000000E+001
         AVE_ECONS -5.2454932707001171E+002
         AVE_PRESS  0.0000000000000000E+000
         AVE_PXX  0.0000000000000000E+000
       &END RESTART_AVERAGES
     &END AVERAGES
   &END MD
   &PRINT
     &TRAJECTORY SILENT
       &EACH
         MD 10
       &END EACH
     &END TRAJECTORY
     &VELOCITIES OFF
     &END VELOCITIES
     &FORCES OFF
     &END FORCES
     &RESTART SILENT
       BACKUP_COPIES 2
       &EACH
         MD 100
       &END EACH
     &END RESTART
     &RESTART_HISTORY SILENT
       &EACH
         MD 100
       &END EACH
     &END RESTART_HISTORY
   &END PRINT
 &END MOTION
 &FORCE_EVAL
   METHOD QS
   &DFT
     BASIS_SET_FILE_NAME ./BASIS_MOLOPT
     POTENTIAL_FILE_NAME ./GTH_POTENTIALS
     MULTIPLICITY 1
     CHARGE 0
     &SCF
       MAX_SCF 1000
       EPS_SCF  9.9999999999999995E-007
       SCF_GUESS ATOMIC
       &OT T
         MINIMIZER DIIS
         PRECONDITIONER FULL_SINGLE_INVERSE
       &END OT
       &OUTER_SCF T
         EPS_SCF  9.9999999999999995E-007
         MAX_SCF 10
       &END OUTER_SCF
       &PRINT
         &RESTART OFF
         &END RESTART
       &END PRINT
     &END SCF
     &QS
       EPS_DEFAULT  1.0000000000000000E-010
       EXTRAPOLATION ASPC
       METHOD GPW
     &END QS
     &MGRID
       NGRIDS 5
       CUTOFF  5.0000000000000000E+002
       REL_CUTOFF  5.0000000000000000E+001
     &END MGRID
     &XC
       DENSITY_CUTOFF  1.0000000000000000E-010
       GRADIENT_CUTOFF  1.0000000000000000E-010
       TAU_CUTOFF  1.0000000000000000E-010
       &XC_FUNCTIONAL NO_SHORTCUT
         &PBE T
         &END PBE
       &END XC_FUNCTIONAL
       &VDW_POTENTIAL
         POTENTIAL_TYPE PAIR_POTENTIAL
         &PAIR_POTENTIAL
           R_CUTOFF  1.2000000000000000E+001
           TYPE DFTD3
           PARAMETER_FILE_NAME ./dftd3.dat
           REFERENCE_FUNCTIONAL "PBE"
         &END PAIR_POTENTIAL
       &END VDW_POTENTIAL
     &END XC
     &POISSON
       PERIODIC XYZ
     &END POISSON
   &END DFT
   &SUBSYS
     &RNG_INIT
 Wiener process for particle 1            1 F T F  -6.8663862794030239E-01        3639008998.0        1886847939.0        2731112341.0        1766291897.0          57518819.0        3286848819.0             12345.0             12345.0             12345.0             12345.0             12345.0             12345.0             12345.0             12345.0             12345.0             12345.0             12345.0             12345.0
 Wiener process for particle 2            1 F T F   3.3897941933206988E-01        2904047230.0        4232093266.0         118261867.0         637443169.0           9275240.0         701956189.0        3692455944.0        1366884236.0        2968912127.0         335948734.0        4161675175.0         475798818.0        3692455944.0        1366884236.0        2968912127.0         335948734.0        4161675175.0         475798818.0
 Wiener process for particle 3            1 F T F  -1.1200019964545485E+00        1883946393.0        4019089737.0         749936839.0        3802726198.0        2706867169.0        3856000697.0        1015873554.0        1310354410.0        2249465273.0         994084013.0        2912484720.0        3876682925.0        1015873554.0        1310354410.0        2249465273.0         994084013.0        2912484720.0        3876682925.0
 Wiener process for particle 4            1 F T F   1.6021422811743256E+00        2740736870.0        1989911304.0        1894116384.0        4073326292.0        3022196069.0         135136925.0        2338701263.0        1119171942.0        2570676563.0         317077452.0        3194180850.0         618832124.0        2338701263.0        1119171942.0        2570676563.0         317077452.0        3194180850.0         618832124.0
 Wiener process for particle 5            1 F T F  -1.4993003253208703E+00         410077657.0        1630132841.0        4008848029.0        4268846772.0         659152479.0        4111045165.0        1597262096.0        3906379055.0        3312112953.0        1016013135.0        4099474108.0         275305423.0        1597262096.0        3906379055.0        3312112953.0        1016013135.0        4099474108.0         275305423.0
 Wiener process for particle 6            1 F T F  -5.5830797438549529E-01        2782697201.0        1615557486.0         547772123.0         154527174.0        3993262274.0        3030858758.0          97147054.0        3131372450.0         829345164.0        3691032523.0        3006063034.0        4259826321.0          97147054.0        3131372450.0         829345164.0        3691032523.0        3006063034.0        4259826321.0
 Wiener process for particle 7            1 F T F  -5.7846685998221203E-01        3723210061.0        4218778662.0        1433772008.0        1072420898.0        2560641524.0        3278114744.0         796079799.0        2105258207.0         955365076.0        2923159030.0        4116632677.0        3067683584.0         796079799.0        2105258207.0         955365076.0        2923159030.0        4116632677.0        3067683584.0
 Wiener process for particle 8            1 F T F   3.8602546620755518E-01         889551982.0         686729039.0        3289685192.0        4095375822.0        1759948954.0        3498506045.0        3281794178.0        2616230133.0        1457051261.0        2762791137.0        2480527362.0        2282316169.0        3281794178.0        2616230133.0        1457051261.0        2762791137.0        2480527362.0        2282316169.0
 Wiener process for particle 9            1 F T F  -1.0879609853959231E+00        1568331446.0        1035677137.0         142229686.0        2235352131.0         163876490.0        2342330750.0        3777646647.0        1837464056.0        4204654757.0         664239048.0        4190510072.0        2959195122.0        3777646647.0        1837464056.0        4204654757.0         664239048.0        4190510072.0        2959195122.0
 Wiener process for particle 10           1 F T F  -6.4153986233925264E-01        3088786959.0         508508612.0        1282949026.0        1325209114.0        3085594936.0        3788934459.0        4215590817.0        3862461878.0        1087200967.0        1544910132.0         936383720.0        1611370123.0        4215590817.0        3862461878.0        1087200967.0        1544910132.0         936383720.0        1611370123.0
 Wiener process for particle 11           1 F T F   6.3491280669490513E-01        2823452306.0        2778277249.0        2511929942.0        3796812459.0        4093784618.0         797810488.0        1683636369.0         362165168.0         814316280.0         869382050.0         980203903.0        2062101717.0        1683636369.0         362165168.0         814316280.0         869382050.0         980203903.0        2062101717.0
 Wiener process for particle 12           1 F T F  -1.2500039553949795E+00        3309684960.0        2532146327.0        1936298267.0         694981541.0        1837301081.0        3240865055.0         272317999.0         166758548.0         310112982.0         201045826.0        1680231254.0         118290799.0         272317999.0         166758548.0         310112982.0         201045826.0        1680231254.0         118290799.0
 Wiener process for particle 13           1 F T F   4.5053054173974166E-01        3502285501.0        1576887665.0        2591485258.0        2409122284.0        3140920835.0        3557911059.0        2245755202.0        1652682525.0        2865544364.0         721509566.0         209733568.0         592362218.0        2245755202.0        1652682525.0        2865544364.0         721509566.0         209733568.0         592362218.0
 Wiener process for particle 14           1 F T F   3.8170380795554133E-02        1167879862.0        1213582238.0        2537761335.0          78907013.0        3186577187.0        3844068474.0        3003961408.0        3529909391.0          14538032.0        3603919910.0         566682685.0        1235016484.0        3003961408.0        3529909391.0          14538032.0        3603919910.0         566682685.0        1235016484.0
 Wiener process for particle 15           1 F T F  -7.1326082479297592E-01        2684592331.0        3636794739.0        1856521636.0        1033794501.0        3369494426.0        3610866745.0         596094074.0        2279636413.0        3050913596.0        1739649456.0        2368706608.0        3058697049.0         596094074.0        2279636413.0        3050913596.0        1739649456.0        2368706608.0        3058697049.0
 Wiener process for particle 16           1 F T F  -1.2708948974747063E+00         333395016.0        2410121625.0        1141810292.0        2993337716.0         557004172.0         477492277.0        1437096527.0        2547142266.0        2541498983.0        2640839690.0        2160978219.0        2618657830.0        1437096527.0        2547142266.0        2541498983.0        2640839690.0        2160978219.0        2618657830.0
 Wiener process for particle 17           1 F T F  -4.0753764487066343E-02        1992352040.0        2168732326.0         524762396.0        3531074337.0         230724528.0        1713486765.0        3224044943.0        1227141655.0        2220611050.0        1504589054.0        2829780440.0         108189859.0        3224044943.0        1227141655.0        2220611050.0        1504589054.0        2829780440.0         108189859.0
 Wiener process for particle 18           1 F T F  -9.5554813543449402E-01        3309251141.0        3669568613.0        1375612530.0        3579182682.0        3070408203.0        2576147361.0         927434978.0        1593504038.0        2143021818.0        1749489845.0        1330187821.0        2371554242.0         927434978.0        1593504038.0        2143021818.0        1749489845.0        1330187821.0        2371554242.0
 Wiener process for particle 19           1 F T F  -1.6372985776323241E+00        2558007323.0        1822064050.0         805016912.0        2735757033.0        4197442097.0         194074027.0        3446225690.0         835741554.0        2195834023.0        1297741021.0        3357053382.0         383824268.0        3446225690.0         835741554.0        2195834023.0        1297741021.0        3357053382.0         383824268.0
 Wiener process for particle 20           1 F T F   8.1327221946107420E-01        3365406351.0        1323032110.0         828393137.0         641895150.0        1775354371.0        2463944096.0        3984477137.0        1267973573.0        3770063761.0         216527865.0        1568537936.0        1200352663.0        3984477137.0        1267973573.0        3770063761.0         216527865.0        1568537936.0        1200352663.0
 Wiener process for particle 21           1 F T F   9.3417850930191348E-01        3906576569.0        1943731872.0        1773278274.0        2337756057.0        2409923422.0        3584805727.0        2503334853.0        3179736892.0        2080184241.0        2881517721.0        3611607237.0        2639045213.0        2503334853.0        3179736892.0        2080184241.0        2881517721.0        3611607237.0        2639045213.0
 Wiener process for particle 22           1 F T F   5.9717672514794151E-01        2972798922.0        3021778406.0         165741969.0        1793110691.0         722693917.0        2367183058.0        2784301963.0        3004110709.0        4065265451.0        2351994899.0        1824839263.0        1473060447.0        2784301963.0        3004110709.0        4065265451.0        2351994899.0        1824839263.0        1473060447.0
 Wiener process for particle 23           1 F T F   1.2871877888388603E+00        3595035691.0        3055791301.0        1008862825.0          58134224.0        3824950616.0         985376332.0        3645411182.0        1391027122.0        3995023402.0         536114258.0        1376034799.0        2391282907.0        3645411182.0        1391027122.0        3995023402.0         536114258.0        1376034799.0        2391282907.0
 Wiener process for particle 24           1 F T F  -9.2295247139334713E-01         623184741.0        3735335406.0        2846540281.0        2611676543.0        3309761207.0        2175737371.0        4205039797.0        2998067142.0        2737381050.0        2060484144.0          21123025.0         900610517.0        4205039797.0        2998067142.0        2737381050.0        2060484144.0          21123025.0         900610517.0
 Wiener process for particle 25           1 F T F  -1.5779606490466669E-02          16508382.0        1752319186.0         618467425.0        3019372530.0        4112321893.0        2250306738.0        1708138263.0        1103344630.0        3131738563.0         354874525.0        1462105562.0        2799820805.0        1708138263.0        1103344630.0        3131738563.0         354874525.0        1462105562.0        2799820805.0
 Wiener process for particle 26           1 F T F  -1.8060454271152178E+00        2409418148.0        3320236833.0        3368532714.0        3900757721.0        1299399005.0         789006877.0        1762624356.0        3338520614.0        1869672149.0        2420033342.0        3823777008.0        4112813433.0        1762624356.0        3338520614.0        1869672149.0        2420033342.0        3823777008.0        4112813433.0
 Wiener process for particle 27           1 F T F   4.7966702234527192E-01        3778015499.0        2875342406.0         679176793.0        1644328503.0         308154142.0        2567698753.0        1406960847.0        2689758640.0        2086764669.0        1479781266.0        4277003072.0        4173905453.0        1406960847.0        2689758640.0        2086764669.0        1479781266.0        4277003072.0        4173905453.0
 Wiener process for particle 28           1 F T F   2.5875848284031191E+00         144677095.0        2693116147.0        1117685841.0        2877230492.0         144200148.0        4000995306.0        3217706054.0        3907922111.0        3316415646.0         934936431.0        1155310743.0        1383590847.0        3217706054.0        3907922111.0        3316415646.0         934936431.0        1155310743.0        1383590847.0
 Wiener process for particle 29           1 F T F  -3.5532598906058099E-01         295108201.0        2973881519.0        1318823367.0        3626425504.0        1313236209.0        3310688256.0        2996242832.0        2506376012.0        1182520337.0         938957435.0        3286002927.0        1946707306.0        2996242832.0        2506376012.0        1182520337.0         938957435.0        3286002927.0        1946707306.0
 Wiener process for particle 30           1 F T F  -2.5686482405891936E-01        4128229126.0        1511271778.0        1749365225.0        4014544772.0        4094917900.0        2430163921.0        3757057907.0        1334546224.0        1509001838.0         991499802.0        1502864996.0         921145139.0        3757057907.0        1334546224.0        1509001838.0         991499802.0        1502864996.0         921145139.0
 Wiener process for particle 31           1 F T F  -1.1222950896292021E-01        4146027808.0         181481851.0        2745802187.0          77526174.0        2458915772.0        3557510934.0        3728532268.0         988545039.0        1631700325.0        1143954198.0        2209269908.0        1591407377.0        3728532268.0         988545039.0        1631700325.0        1143954198.0        2209269908.0        1591407377.0
 Wiener process for particle 32           1 F T F  -3.2796802488153824E+00        1882552908.0        1163939877.0        1046716333.0         690049797.0        3449572488.0         215668674.0        3294123071.0        1464634864.0        3721431761.0        2693241183.0        1754954480.0        3900039887.0        3294123071.0        1464634864.0        3721431761.0        2693241183.0        1754954480.0        3900039887.0
 Wiener process for particle 33           1 F T F  -7.5678547304997823E-01         786821771.0        4271034605.0        3074415193.0        1957468133.0        3682045826.0        3934878075.0         131824893.0        3188611738.0        1376082626.0        2419937722.0        2563475034.0        1251594162.0         131824893.0        3188611738.0        1376082626.0        2419937722.0        2563475034.0        1251594162.0
 Wiener process for particle 34           1 F T F   6.4543843694681846E-01        1579124532.0        3836174697.0        1076208008.0        4098918555.0         627611419.0        1761774157.0        3770164700.0        4029076745.0        1104720217.0        3496143152.0         735265587.0        3273706940.0        3770164700.0        4029076745.0        1104720217.0        3496143152.0         735265587.0        3273706940.0
 Wiener process for particle 35           1 F T F   1.9895199902714662E+00         356301271.0         380515401.0        3614860342.0         512293720.0        1771059501.0        1376297482.0        2131062045.0        2455732983.0         789218840.0        1151705419.0         286383816.0         924846932.0        2131062045.0        2455732983.0         789218840.0        1151705419.0         286383816.0         924846932.0
 Wiener process for particle 36           1 F T F  -7.8188296006760916E-01         598337538.0        1365203779.0        1547389544.0        2121146836.0         808772742.0        1406942963.0        2053528341.0        4170407123.0        3515474899.0          98091789.0        1000335891.0        3854257602.0        2053528341.0        4170407123.0        3515474899.0          98091789.0        1000335891.0        3854257602.0
 Wiener process for particle 37           1 F T F  -1.1402087464745729E+00        2310561253.0        1768260151.0        1927854171.0        1399379712.0        1140801373.0        1870466106.0        2469807084.0           9172128.0        3362394154.0        4021928081.0        2651348937.0        2296225074.0        2469807084.0           9172128.0        3362394154.0        4021928081.0        2651348937.0        2296225074.0
 Wiener process for particle 38           1 F T F   4.8695562108880935E-01        4119073194.0         985134302.0        1547702798.0        1528309396.0        1166244929.0        4217770898.0         794136241.0        1326962976.0        1423309168.0         588827532.0        1370684418.0        1646244893.0         794136241.0        1326962976.0        1423309168.0         588827532.0        1370684418.0        1646244893.0
 Wiener process for particle 39           1 F T F  -1.3788024860785527E-02        3426207931.0        1961408927.0        2638050824.0        3573936741.0        4154868116.0        1569386019.0        2866999578.0        1918106148.0        3899143652.0        2905238681.0        3298551408.0         326591245.0        2866999578.0        1918106148.0        3899143652.0        2905238681.0        3298551408.0         326591245.0
 Wiener process for particle 40           1 F T F   3.8776543589791390E-01        2999248117.0        3868542169.0        4086289478.0         216850558.0         870997755.0         587614522.0        3040096556.0        1206876890.0         780501254.0         597456198.0        1004013014.0        3962406934.0        3040096556.0        1206876890.0         780501254.0         597456198.0        1004013014.0        3962406934.0
 Wiener process for particle 41           1 F T F   1.6782469405406670E+00        1421910224.0        2064750229.0        2508708918.0        3962193725.0        3423246191.0         975616818.0        3970659565.0        2743575038.0        4070166570.0         141329301.0        2711190398.0         148640829.0        3970659565.0        2743575038.0        4070166570.0         141329301.0        2711190398.0         148640829.0
 Wiener process for particle 42           1 F T F  -8.0691482750353360E-01        3260008194.0         165192421.0        2890773524.0        4075904355.0        3063467009.0        3329723413.0         216582539.0        3263278363.0        1880572884.0        3722908253.0         287018188.0         285207334.0         216582539.0        3263278363.0        1880572884.0        3722908253.0         287018188.0         285207334.0
 Wiener process for particle 43           1 F T F  -1.5919542341048101E-01        3977856426.0        3782399574.0        2666108487.0        1807220373.0        2480978329.0        4145515688.0        4258459985.0        1892494520.0        2510345890.0        2935846613.0        1134826799.0        1965241718.0        4258459985.0        1892494520.0        2510345890.0        2935846613.0        1134826799.0        1965241718.0
 Wiener process for particle 44           1 F T F  -7.0887419237809179E-01        3247616170.0        1243773339.0        2599071585.0         881011142.0         546933001.0        2989708664.0         578737695.0         119907309.0        1233642926.0        4159114509.0        3946997940.0          72299514.0         578737695.0         119907309.0        1233642926.0        4159114509.0        3946997940.0          72299514.0
 Wiener process for particle 45           1 F T F  -3.4459263715973731E-01         705080470.0        2311066647.0        4241311018.0         428494021.0         454364022.0        3360645941.0        2479155365.0        4125104013.0         170057196.0        2546874696.0        2945959743.0        4079518977.0        2479155365.0        4125104013.0         170057196.0        2546874696.0        2945959743.0        4079518977.0
 Wiener process for particle 46           1 F T F  -1.7088921658200695E+00        3913283484.0        1237939381.0        3226999944.0        1360718422.0        3721927988.0        2108103634.0        4016980097.0        3481660449.0         995889916.0        3015184182.0        4180728415.0        3263605701.0        4016980097.0        3481660449.0         995889916.0        3015184182.0        4180728415.0        3263605701.0
 Wiener process for particle 47           1 F T F  -1.5188306917335478E-01        2709916609.0        1363934312.0        3851517982.0        1797769013.0         921933130.0        3008059447.0        1769249367.0        2243378503.0        3654912402.0        3067634031.0        2622402920.0         552187620.0        1769249367.0        2243378503.0        3654912402.0        3067634031.0        2622402920.0         552187620.0
 Wiener process for particle 48           1 F T F   2.5386947321272352E-01        2224024618.0        3078268859.0        1860714061.0        3607334660.0          16516390.0        3298476877.0        2210461626.0         810156371.0        1171187114.0        2260289774.0        3470472214.0        2062524891.0        2210461626.0         810156371.0        1171187114.0        2260289774.0        3470472214.0        2062524891.0
 Wiener process for particle 49           1 F T F  -1.2849268372150844E+00         449212740.0        2663041447.0        3874125998.0         936546578.0        1891584904.0         632441573.0        2967787448.0         410732989.0        1241813518.0        1154065742.0        1680293965.0        1718768485.0        2967787448.0         410732989.0        1241813518.0        1154065742.0        1680293965.0        1718768485.0
 Wiener process for particle 50           1 F T F   1.5178596343738662E+00         516901983.0         515300080.0        1865478733.0        3167976095.0        1629065118.0        3863551400.0        2667041740.0        4238911572.0        3694573673.0        3166543307.0        2525238380.0        2009058941.0        2667041740.0        4238911572.0        3694573673.0        3166543307.0        2525238380.0        2009058941.0
 Wiener process for particle 51           1 F T F   1.1645937782608478E+00        1337912884.0        2925047795.0         374186194.0        2673728234.0        4220003866.0        2886876512.0        1609088888.0         302146514.0        1337822968.0          32443790.0         663198624.0         108142314.0        1609088888.0         302146514.0        1337822968.0          32443790.0         663198624.0         108142314.0
 Wiener process for particle 52           1 F T F  -8.9682678531768667E-01        3260058723.0        1690884123.0        1208005122.0         839978680.0          81756297.0        1682158021.0        3500933258.0        1350819015.0        2732370233.0         555530171.0        4066946918.0         915552600.0        3500933258.0        1350819015.0        2732370233.0         555530171.0        4066946918.0         915552600.0
 Wiener process for particle 53           1 F T F  -6.0240732681315556E-01        4231960957.0        3461033758.0         471973986.0        2947881588.0        3139277368.0        3746253880.0         193582114.0        3536931462.0        1061163334.0        2771375939.0        1968090767.0        2893840988.0         193582114.0        3536931462.0        1061163334.0        2771375939.0        1968090767.0        2893840988.0
 Wiener process for particle 54           1 F T F  -1.0244355192362242E+00        3343952490.0        3358896962.0        3642176127.0        3438554164.0        2548058919.0        4152356599.0        2904978947.0        1723463734.0        2986735812.0        3454199587.0         735074847.0        2431656074.0        2904978947.0        1723463734.0        2986735812.0        3454199587.0         735074847.0        2431656074.0
 Wiener process for particle 55           1 F T F   2.0821724935693828E-02        2555788000.0        3181781819.0         681108489.0        3858242836.0         963612878.0        3316137626.0        2966808121.0        3354520627.0         346101755.0        1263362009.0        4029540813.0        3080467228.0        2966808121.0        3354520627.0         346101755.0        1263362009.0        4029540813.0        3080467228.0
 Wiener process for particle 56           1 F T F  -5.7328100308039920E-01        3087698956.0         181280283.0        3769374117.0        2379632813.0        2657880165.0         749592321.0         569973296.0        3971015859.0        3727859896.0        2211808163.0        3074531219.0        1990606083.0         569973296.0        3971015859.0        3727859896.0        2211808163.0        3074531219.0        1990606083.0
 Wiener process for particle 57           1 F T F   6.6530903788810403E-01        2190222560.0         925012535.0        2297663060.0         308105328.0        2156325583.0        2743263209.0        3683590777.0        3859373512.0         297644217.0        3451581853.0         333484586.0        2062123863.0        3683590777.0        3859373512.0         297644217.0        3451581853.0         333484586.0        2062123863.0
 Wiener process for particle 58           1 F T F  -1.9926258911122254E+00         244240031.0        1750057232.0         778768625.0        2144577513.0         337449421.0        2873535503.0         645531386.0        2789451056.0         574522196.0         570030963.0        3542619707.0         497013447.0         645531386.0        2789451056.0         574522196.0         570030963.0        3542619707.0         497013447.0
 Wiener process for particle 59           1 F T F  -1.5465869491648725E+00        1553837422.0        3177700082.0        1482424191.0         577855816.0        2029737387.0        3485976464.0         451656962.0         311003181.0        1307291076.0        1120714888.0        2424794474.0        2826415669.0         451656962.0         311003181.0        1307291076.0        1120714888.0        2424794474.0        2826415669.0
 Wiener process for particle 60           1 F T F   4.8270104041646117E-01        2808591099.0         342207165.0        2205205026.0        2569085735.0         583934864.0        2803974731.0        2009828795.0         776964895.0          69098504.0         438661728.0        1172795657.0        2573364290.0        2009828795.0         776964895.0          69098504.0         438661728.0        1172795657.0        2573364290.0